112807.65
69 66 63 64 4 15 13 12 27 26 17 16 19 18 24 32 33 34 25 23 22 20 21 2 1 71 72 0 75 73 74 55 54 48 53 52 51 35 50 49 47 46 45 44 43 42 56 67 68 57 41 40 39 36 37 38 60 59 58 62 61 7 6 5 9 8 30 29 31 28 11 10 14 3 65 70